998903
958356
653667
228113
574032
75310
635760
11100
505613
383482
632900
996652
75055
27621
84110
821993
607972
41254
655257
786606
293
98036
709370
157584
3584
577385
674146
264847
826608
920241
592979
2777
161064
253422
686896
757365
633967
195628
118829
387602
904228
202556
632677
27949
770147
318767
822666
859865
356928
764209
549494
412590
421296
334015
611937
760720
795720
248582
762412
859931
774173
11162
416473
725352
47369
673871
306334
289279
769743
741816
749774
784345
776406
16377
490231
790608
204370
936139
94155
911653
188096
754316
347894
405870
488719
562369
307278
74138
489692
55913
576169
272418
934038
192190
735304
72974
410113
167691
657200
562273
